(set-logic QF_S)
(set-option :strings-exp true)
(set-option :produce-models true)
(declare-fun sigmaStar_0 () String)
(declare-fun sigmaStar_1 () String)
(declare-fun literal_2 () String)
(declare-fun x_3 () String)
(declare-fun literal_4 () String)
(declare-fun x_5 () String)
(declare-fun literal_6 () String)
(declare-fun x_7 () String)
(declare-fun literal_8 () String)
(declare-fun x_9 () String)
(assert (= literal_2 "\x2f\x2f"))
(assert (= x_3 (str.++ literal_2 sigmaStar_0)))
(assert (= literal_4 "\x22\x20\x22"))
(assert (= x_5 (str.++ x_3 literal_4)))
(assert (= literal_6 "\x22\x3e"))
(assert (= x_7 (str.++ x_5 literal_6)))
(assert (= literal_8 "\x5c\x6e"))
(assert (= x_9 (str.++ x_7 literal_8)))
(assert (str.in.re x_9 (re.++ (re.* re.allchar) (re.++ (str.to.re "\x5c\x3c\x53\x43\x52\x49\x50\x54") (re.* re.allchar)))))
(check-sat)
(get-model)
